presolving:
(round 1, fast)       16766 del vars, 1473 del conss, 0 add conss, 420 chg bounds, 0 chg sides, 0 chg coeffs, 0 upgd conss, 0 impls, 0 clqs
(round 2, fast)       17397 del vars, 1473 del conss, 0 add conss, 420 chg bounds, 0 chg sides, 0 chg coeffs, 0 upgd conss, 0 impls, 0 clqs
   (0.3s) running MILP presolver
   (0.3s) MILP presolver found nothing
(round 3, exhaustive) 17397 del vars, 1473 del conss, 0 add conss, 420 chg bounds, 0 chg sides, 0 chg coeffs, 3002 upgd conss, 0 impls, 0 clqs
   (0.7s) probing: 51/210 (24.3%) - 0 fixings, 0 aggregations, 0 implications, 0 bound changes
   (0.7s) probing aborted: 50/50 successive totally useless probings
   (1.1s) symmetry computation started: requiring (bin +, int -, cont +), (fixed: bin -, int +, cont -)
   (1.2s) no symmetry present
presolving (4 rounds: 4 fast, 2 medium, 2 exhaustive):
 27939 deleted vars, 1683 deleted constraints, 0 added constraints, 420 tightened bounds, 0 added holes, 0 changed sides, 0 changed coefficients
 0 implications, 0 cliques
presolved problem has 210 variables (210 bin, 0 int, 0 impl, 0 cont) and 3002 constraints
      2 constraints of type <knapsack>
   3000 constraints of type <logicor>
transformed objective value is always integral (scale: 0.01)
Presolving Time: 1.29

 time | node  | left  |LP iter|LP it/n|mem/heur|mdpt |vars |cons |rows |cuts |sepa|confs|strbr|  dualbound   | primalbound  |  gap   | compl. 
p 1.4s|     1 |     0 |     0 |     - |   locks|   0 | 210 |3002 |3002 |   0 |  0 |   0 |   0 |-4.657832e+06 |-4.649047e+06 |   0.19%| unknown
  1.5s|     1 |     0 |   356 |     - |   252M |   0 | 210 |3002 |3002 |   0 |  0 |   0 |   0 |-4.656668e+06 |-4.649047e+06 |   0.16%| unknown
r 1.5s|     1 |     0 |   356 |     - |rounding|   0 | 210 |3002 |3002 |   0 |  0 |   0 |   0 |-4.656668e+06 |-4.650954e+06 |   0.12%| unknown
r 1.5s|     1 |     0 |   356 |     - |shifting|   0 | 210 |3002 |3002 |   0 |  0 |   0 |   0 |-4.656668e+06 |-4.651200e+06 |   0.12%| unknown
i 1.5s|     1 |     0 |   356 |     - |  oneopt|   0 | 210 |3002 |3002 |   0 |  0 |   0 |   0 |-4.656668e+06 |-4.656184e+06 |   0.01%| unknown
  1.6s|     1 |     0 |   396 |     - |   252M |   0 | 210 |3002 |3003 |   1 |  1 |   0 |   0 |-4.656664e+06 |-4.656184e+06 |   0.01%| unknown
  1.7s|     1 |     0 |   428 |     - |   253M |   0 | 210 |3002 |3004 |   2 |  2 |   0 |   0 |-4.656660e+06 |-4.656184e+06 |   0.01%| unknown
  1.7s|     1 |     0 |   464 |     - |   255M |   0 | 210 |3002 |3005 |   3 |  3 |   0 |   0 |-4.656658e+06 |-4.656184e+06 |   0.01%| unknown
  1.8s|     1 |     0 |   517 |     - |   256M |   0 | 210 |3002 |3006 |   4 |  4 |   0 |   0 |-4.656656e+06 |-4.656184e+06 |   0.01%| unknown
  1.9s|     1 |     0 |   560 |     - |   258M |   0 | 210 |3002 |3007 |   5 |  5 |   0 |   0 |-4.656655e+06 |-4.656184e+06 |   0.01%| unknown
  2.0s|     1 |     0 |   592 |     - |   259M |   0 | 210 |3002 |3008 |   6 |  6 |   0 |   0 |-4.656654e+06 |-4.656184e+06 |   0.01%| unknown
  2.0s|     1 |     0 |   622 |     - |   260M |   0 | 210 |3002 |3009 |   7 |  7 |   0 |   0 |-4.656654e+06 |-4.656184e+06 |   0.01%| unknown
  2.1s|     1 |     0 |   641 |     - |   261M |   0 | 210 |3002 |3010 |   8 |  8 |   0 |   0 |-4.656654e+06 |-4.656184e+06 |   0.01%| unknown
  2.2s|     1 |     0 |   661 |     - |   264M |   0 | 210 |3002 |3011 |   9 |  9 |   0 |   0 |-4.656653e+06 |-4.656184e+06 |   0.01%| unknown
  2.3s|     1 |     0 |   679 |     - |   264M |   0 | 210 |3002 |3012 |  10 | 10 |   0 |   0 |-4.656653e+06 |-4.656184e+06 |   0.01%| unknown
 time | node  | left  |LP iter|LP it/n|mem/heur|mdpt |vars |cons |rows |cuts |sepa|confs|strbr|  dualbound   | primalbound  |  gap   | compl. 
  2.3s|     1 |     0 |   695 |     - |   264M |   0 | 210 |3002 |3013 |  11 | 11 |   0 |   0 |-4.656653e+06 |-4.656184e+06 |   0.01%| unknown
  2.3s|     1 |     0 |   718 |     - |   265M |   0 | 210 |3002 |3014 |  12 | 12 |   0 |   0 |-4.656652e+06 |-4.656184e+06 |   0.01%| unknown
  2.3s|     1 |     0 |   746 |     - |   265M |   0 | 210 |3002 |3015 |  13 | 13 |   0 |   0 |-4.656652e+06 |-4.656184e+06 |   0.01%| unknown
  2.4s|     1 |     0 |   764 |     - |   265M |   0 | 210 |3002 |3016 |  14 | 14 |   0 |   0 |-4.656652e+06 |-4.656184e+06 |   0.01%| unknown
  2.4s|     1 |     0 |   768 |     - |   265M |   0 | 210 |3002 |3017 |  15 | 15 |   0 |   0 |-4.656652e+06 |-4.656184e+06 |   0.01%| unknown
  2.4s|     1 |     0 |   779 |     - |   266M |   0 | 210 |3002 |3018 |  16 | 16 |   0 |   0 |-4.656652e+06 |-4.656184e+06 |   0.01%| unknown
  2.4s|     1 |     0 |   792 |     - |   266M |   0 | 210 |3002 |3019 |  17 | 17 |   0 |   0 |-4.656652e+06 |-4.656184e+06 |   0.01%| unknown
  2.5s|     1 |     0 |   807 |     - |   266M |   0 | 210 |3002 |3020 |  18 | 18 |   0 |   0 |-4.656652e+06 |-4.656184e+06 |   0.01%| unknown
  2.5s|     1 |     0 |   817 |     - |   267M |   0 | 210 |3002 |3021 |  19 | 19 |   0 |   0 |-4.656652e+06 |-4.656184e+06 |   0.01%| unknown
  2.5s|     1 |     0 |   823 |     - |   267M |   0 | 210 |3002 |3022 |  20 | 20 |   0 |   0 |-4.656652e+06 |-4.656184e+06 |   0.01%| unknown
  2.5s|     1 |     0 |   833 |     - |   267M |   0 | 210 |3002 |3023 |  21 | 21 |   0 |   0 |-4.656652e+06 |-4.656184e+06 |   0.01%| unknown
  2.6s|     1 |     0 |   851 |     - |   267M |   0 | 210 |3002 |3024 |  22 | 22 |   0 |   0 |-4.656651e+06 |-4.656184e+06 |   0.01%| unknown
  2.6s|     1 |     0 |   863 |     - |   267M |   0 | 210 |3002 |3023 |  23 | 23 |   0 |   0 |-4.656651e+06 |-4.656184e+06 |   0.01%| unknown
  2.6s|     1 |     0 |   871 |     - |   267M |   0 | 210 |3002 |3024 |  24 | 24 |   0 |   0 |-4.656651e+06 |-4.656184e+06 |   0.01%| unknown
  2.6s|     1 |     0 |   883 |     - |   267M |   0 | 210 |3002 |3025 |  25 | 25 |   0 |   0 |-4.656651e+06 |-4.656184e+06 |   0.01%| unknown
 time | node  | left  |LP iter|LP it/n|mem/heur|mdpt |vars |cons |rows |cuts |sepa|confs|strbr|  dualbound   | primalbound  |  gap   | compl. 
  2.7s|     1 |     0 |   894 |     - |   267M |   0 | 210 |3002 |3026 |  26 | 26 |   0 |   0 |-4.656651e+06 |-4.656184e+06 |   0.01%| unknown
  2.7s|     1 |     0 |   897 |     - |   267M |   0 | 210 |3002 |3027 |  27 | 27 |   0 |   0 |-4.656651e+06 |-4.656184e+06 |   0.01%| unknown
d 3.2s|     1 |     0 |  1804 |     - |farkasdi|   0 | 210 |3002 |3027 |   0 | 27 |   0 |   0 |-4.656651e+06 |-4.656213e+06 |   0.01%| unknown
L10.8s|     1 |     0 |  4628 |     - |    rens|   0 | 210 |3002 |3027 |  27 | 27 |   0 |   0 |-4.656651e+06 |-4.656285e+06 |   0.01%| unknown
 10.9s|     1 |     0 |  4628 |     - |   267M |   0 | 210 |3002 |3027 |  27 | 27 |   0 |   0 |-4.656651e+06 |-4.656285e+06 |   0.01%| unknown
 10.9s|     1 |     0 |  4628 |     - |   267M |   0 | 210 |3002 |3026 |  27 | 27 |   0 |   0 |-4.656651e+06 |-4.656285e+06 |   0.01%| unknown
 10.9s|     1 |     0 |  4632 |     - |   267M |   0 | 210 |3002 |3027 |  28 | 28 |   0 |   0 |-4.656651e+06 |-4.656285e+06 |   0.01%| unknown
 10.9s|     1 |     0 |  4646 |     - |   267M |   0 | 210 |3002 |3028 |  29 | 29 |   0 |   0 |-4.656651e+06 |-4.656285e+06 |   0.01%| unknown
 12.2s|     1 |     2 |  4646 |     - |   267M |   0 | 210 |3001 |3028 |  29 | 29 |   0 |  22 |-4.656622e+06 |-4.656285e+06 |   0.01%| unknown
(run 1, node 1) restarting after 13 global fixings of integer variables

(restart) converted 27 cuts from the global cut pool into linear constraints

presolving:
(round 1, fast)       13 del vars, 0 del conss, 0 add conss, 0 chg bounds, 0 chg sides, 6437 chg coeffs, 0 upgd conss, 0 impls, 0 clqs
   (12.5s) running MILP presolver
   (12.5s) MILP presolver found nothing
(round 2, exhaustive) 13 del vars, 0 del conss, 0 add conss, 0 chg bounds, 0 chg sides, 6437 chg coeffs, 13 upgd conss, 0 impls, 0 clqs
presolving (3 rounds: 3 fast, 2 medium, 2 exhaustive):
 13 deleted vars, 0 deleted constraints, 0 added constraints, 0 tightened bounds, 0 added holes, 0 changed sides, 6437 changed coefficients
 0 implications, 0 cliques
presolved problem has 197 variables (197 bin, 0 int, 0 impl, 0 cont) and 3028 constraints
     14 constraints of type <knapsack>
     14 constraints of type <linear>
   3000 constraints of type <logicor>
transformed objective value is always integral (scale: 0.01)
Presolving Time: 1.63
transformed 7/8 original solutions to the transformed problem space

 time | node  | left  |LP iter|LP it/n|mem/heur|mdpt |vars |cons |rows |cuts |sepa|confs|strbr|  dualbound   | primalbound  |  gap   | compl. 
 12.8s|     1 |     0 |  5046 |     - |   271M |   0 | 197 |3028 |3028 |   0 |  0 |   0 |  22 |-4.656622e+06 |-4.656285e+06 |   0.01%| unknown
 12.9s|     1 |     0 |  5064 |     - |   272M |   0 | 197 |3028 |3029 |   1 |  1 |   0 |  22 |-4.656622e+06 |-4.656285e+06 |   0.01%| unknown
 13.0s|     1 |     0 |  5127 |     - |   272M |   0 | 197 |3028 |3030 |   2 |  2 |   0 |  22 |-4.656622e+06 |-4.656285e+06 |   0.01%| unknown
 13.1s|     1 |     0 |  5143 |     - |   272M |   0 | 197 |3028 |3031 |   3 |  3 |   0 |  22 |-4.656622e+06 |-4.656285e+06 |   0.01%| unknown
 13.2s|     1 |     0 |  5177 |     - |   273M |   0 | 197 |3028 |3032 |   4 |  4 |   0 |  22 |-4.656622e+06 |-4.656285e+06 |   0.01%| unknown
 13.3s|     1 |     0 |  5212 |     - |   274M |   0 | 197 |3028 |3033 |   5 |  5 |   0 |  22 |-4.656622e+06 |-4.656285e+06 |   0.01%| unknown
 13.4s|     1 |     0 |  5245 |     - |   274M |   0 | 197 |3028 |3034 |   6 |  6 |   0 |  22 |-4.656622e+06 |-4.656285e+06 |   0.01%| unknown
 13.5s|     1 |     0 |  5286 |     - |   276M |   0 | 197 |3028 |3035 |   7 |  7 |   0 |  22 |-4.656622e+06 |-4.656285e+06 |   0.01%| unknown
 13.6s|     1 |     0 |  5301 |     - |   277M |   0 | 197 |3028 |3036 |   8 |  8 |   0 |  22 |-4.656622e+06 |-4.656285e+06 |   0.01%| unknown
 13.8s|     1 |     0 |  5325 |     - |   278M |   0 | 197 |3028 |3037 |   9 |  9 |   0 |  22 |-4.656622e+06 |-4.656285e+06 |   0.01%| unknown
 13.9s|     1 |     0 |  5354 |     - |   280M |   0 | 197 |3028 |3038 |  10 | 10 |   0 |  22 |-4.656622e+06 |-4.656285e+06 |   0.01%| unknown
 13.9s|     1 |     0 |  5380 |     - |   281M |   0 | 197 |3028 |3039 |  11 | 11 |   0 |  22 |-4.656622e+06 |-4.656285e+06 |   0.01%| unknown
 14.0s|     1 |     0 |  5405 |     - |   281M |   0 | 197 |3028 |3040 |  12 | 12 |   0 |  22 |-4.656622e+06 |-4.656285e+06 |   0.01%| unknown
 14.0s|     1 |     0 |  5433 |     - |   281M |   0 | 197 |3028 |3041 |  13 | 13 |   0 |  22 |-4.656622e+06 |-4.656285e+06 |   0.01%| unknown
 14.1s|     1 |     0 |  5450 |     - |   282M |   0 | 197 |3028 |3034 |  14 | 14 |   0 |  22 |-4.656622e+06 |-4.656285e+06 |   0.01%| unknown
 time | node  | left  |LP iter|LP it/n|mem/heur|mdpt |vars |cons |rows |cuts |sepa|confs|strbr|  dualbound   | primalbound  |  gap   | compl. 
 14.1s|     1 |     0 |  5472 |     - |   282M |   0 | 197 |3028 |3035 |  15 | 15 |   0 |  22 |-4.656622e+06 |-4.656285e+06 |   0.01%| unknown
 14.2s|     1 |     0 |  5488 |     - |   282M |   0 | 197 |3028 |3036 |  16 | 16 |   0 |  22 |-4.656622e+06 |-4.656285e+06 |   0.01%| unknown
 14.2s|     1 |     0 |  5518 |     - |   282M |   0 | 197 |3028 |3037 |  17 | 17 |   0 |  22 |-4.656622e+06 |-4.656285e+06 |   0.01%| unknown
 14.3s|     1 |     0 |  5531 |     - |   282M |   0 | 197 |3028 |3038 |  18 | 18 |   0 |  22 |-4.656622e+06 |-4.656285e+06 |   0.01%| unknown
 14.3s|     1 |     0 |  5546 |     - |   282M |   0 | 197 |3028 |3039 |  19 | 19 |   0 |  22 |-4.656622e+06 |-4.656285e+06 |   0.01%| unknown
 14.3s|     1 |     0 |  5563 |     - |   282M |   0 | 197 |3028 |3035 |  20 | 20 |   0 |  22 |-4.656622e+06 |-4.656285e+06 |   0.01%| unknown
 20.3s|     1 |     2 |  6336 |     - |   282M |   0 | 197 |3028 |3035 |  20 | 22 |   0 |  41 |-4.656618e+06 |-4.656285e+06 |   0.01%| unknown
 29.9s|   100 |    35 | 14913 | 130.8 |   291M |  13 | 197 |3140 |3025 |  67 |  1 | 114 | 289 |-4.656582e+06 |-4.656285e+06 |   0.01%|  24.70%
 35.2s|   200 |    49 | 21344 |  97.6 |   291M |  13 | 197 |3189 |3027 | 107 |  3 | 163 | 389 |-4.656497e+06 |-4.656285e+06 |   0.00%|  39.44%
 38.3s|   300 |    73 | 27651 |  86.1 |   291M |  14 | 197 |3225 |3028 | 130 |  1 | 199 | 442 |-4.656455e+06 |-4.656285e+06 |   0.00%|  48.93%
*41.2s|   359 |    88 | 33647 |  88.6 |    LP  |  17 | 197 |3264 |3025 | 168 |  2 | 239 | 476 |-4.656436e+06 |-4.656296e+06 |   0.00%|  53.70%
 42.8s|   400 |   103 | 37418 |  89.0 |   291M |  17 | 197 |3290 |3025 | 195 |  2 | 268 | 497 |-4.656426e+06 |-4.656296e+06 |   0.00%|  58.91%
 45.4s|   500 |   101 | 43002 |  82.3 |   291M |  17 | 197 |3317 |3024 | 246 |  0 | 296 | 527 |-4.656396e+06 |-4.656296e+06 |   0.00%|  69.87%
 47.0s|   600 |    89 | 47766 |  76.6 |   291M |  17 | 197 |3337 |3030 | 270 |  1 | 325 | 548 |-4.656372e+06 |-4.656296e+06 |   0.00%|  79.14%
 48.3s|   700 |    63 | 52677 |  72.6 |   291M |  17 | 197 |3337 |3024 | 275 |  2 | 343 | 566 |-4.656362e+06 |-4.656296e+06 |   0.00%|  89.55%
 time | node  | left  |LP iter|LP it/n|mem/heur|mdpt |vars |cons |rows |cuts |sepa|confs|strbr|  dualbound   | primalbound  |  gap   | compl. 
 49.9s|   800 |    13 | 55327 |  66.9 |   291M |  17 | 197 |3338 |3029 | 276 |  0 | 352 | 575 |-4.656335e+06 |-4.656296e+06 |   0.00%|  96.95%

SCIP Status        : problem is solved [optimal solution found]
Solving Time (sec) : 50.16
Solving Nodes      : 821 (total of 822 nodes in 2 runs)
Primal Bound       : -4.65629648000000e+06 (231 solutions)
Dual Bound         : -4.65629648000000e+06
Gap                : 0.00 %
Solve Status: optimal
Solve Time: 50.17 seconds
